27	3

10	10	10	

0	0	0	0	3	2	3	4	
5	3	5	2	2	5	6	
5	5	4	3	2	5	6	
5	5	2	2	3	5	7	8	
1	4	1	4	2	9	10	
2	5	5	4	2	11	12	
3	3	5	2	2	11	12	
1	2	4	4	2	9	12	
5	3	2	2	2	13	14	
3	3	2	4	2	14	15	
3	3	3	2	2	13	16	
3	4	1	4	1	14	
1	1	4	4	1	18	
5	2	2	2	2	18	19	
1	5	5	4	1	17	
6	1	5	4	2	17	20	
3	4	5	4	2	22	24	
8	3	2	3	2	22	23	
4	5	3	3	1	21	
2	2	4	6	1	22	
1	1	6	2	1	25	
5	3	2	1	1	26	
3	1	0	4	1	26	
1	2	2	1	1	25	
8	0	1	3	1	27	
3	2	2	2	1	27	
0	0	0	0	0	
